3209
2549
4778
1426
5344
9181
6078
2513
4321
6594
7315
10025
9612
3412
1764
3451
6715
8255
5061
7825
1493
6306
6984
7752
9329
1998
8370
989
9328
3917
1879
9304
4404
2797
9519
4629
9783
1221
7537
3266
3452
9995
9527
4191
8516
5255
5143
4541
4229
1469
